n=30;
demand=2;
horizon=30;
est=[14,27,12,12,22,13,0,0,13,21,10,24,16,0,12,25,0,2,3,24,2,5,9,20,0,18,18,28,17,24];
processing_time=[12,1,6,5,2,8,14,5,8,9,9,6,2,18,17,2,24,14,17,5,14,22,1,8,16,12,11,2,5,5];
lct=[26,29,30,20,26,25,19,8,25,30,24,30,21,28,29,28,27,27,20,29,26,29,24,28,26,30,29,30,23,29];
